p cnf 37 51                 
1 2 -5 0
5 -7 0
1 3 -6 0
6 -7 0
7 -11 0
3 4 -8 0
8 -10 0
2 4 -9 0
9 -10 0
10 -11 0
11 -29 0
2 -13 0
3 -13 0
1 13 -17 0
17 -23 0
4 13 -20 0
20 -23 0
1 -12 0
2 -12 0
2 -14 0
4 -14 0
12 14 -18 0
2 18 -21 0
21 -23 0
1 -15 0
3 -15 0
3 -16 0
4 -16 0
15 16 -19 0
3 19 -22 0
22 -23 0
23 -29 0
5 -25 0
-2 -1 -24 0
24 -25 0
25 -28 0
8 -27 0
-4 -3 -26 0
26 -27 0
27 -28 0
28 -29 0
-1 4 -30 0
30 -36 0
-1 -4 31 0
1 4 31 0
-4 4 31 0
-2 3 -32 0
-31 32 -33 0
33 -36 0
29 0
36 0
